************************************************************************
file with basedata            : mm56_.bas
initial value random generator: 24248
************************************************************************
projects                      :  1
jobs (incl. supersource/sink ):  12
horizon                       :  75
RESOURCES
  - renewable                 :  2   R
  - nonrenewable              :  2   N
  - doubly constrained        :  0   D
************************************************************************
PROJECT INFORMATION:
pronr.  #jobs rel.date duedate tardcost  MPM-Time
    1     10      0       13        9       13
************************************************************************
PRECEDENCE RELATIONS:
jobnr.    #modes  #successors   successors
   1        1          3           2   3   4
   2        3          2           6   8
   3        3          1           8
   4        3          2           5   7
   5        3          3           8   9  11
   6        3          2           7  10
   7        3          1           9
   8        3          1          10
   9        3          1          12
  10        3          1          12
  11        3          1          12
  12        1          0        
************************************************************************
REQUESTS/DURATIONS:
jobnr. mode duration  R 1  R 2  N 1  N 2
------------------------------------------------------------------------
  1      1     0       0    0    0    0
  2      1     2       7    6    3    8
         2     5       5    4    3    7
         3     6       4    2    2    5
  3      1     3       7    9    8    6
         2     4       7    9    7    6
         3     9       7    8    7    5
  4      1     1       9    9    8    6
         2     2       9    8    7    4
         3     7       8    7    6    4
  5      1     2       6    7    7    6
         2     8       6    6    4    3
         3     9       6    6    2    3
  6      1     3       8    2    7    9
         2     9       8    2    6    8
         3    10       8    1    5    7
  7      1     2       6    4    7    8
         2     3       6    3    7    6
         3     5       2    3    6    5
  8      1     8       9    4   10    5
         2    10       9    3    7    2
         3    10       8    4    8    4
  9      1     1       8    4    7    9
         2     3       7    4    6    7
         3     5       6    3    5    4
 10      1     2       5    8    8    5
         2     8       4    8    8    2
         3     9       4    5    7    1
 11      1     1       9    9    7    7
         2     4       9    8    7    7
         3     5       9    5    6    7
 12      1     0       0    0    0    0
************************************************************************
RESOURCEAVAILABILITIES:
  R 1  R 2  N 1  N 2
   21   19   72   69
************************************************************************
MAXIMAL LAGS:
from  to  type  delay
    1   12   ES      0
    1    2   ES      0
    2   12   ES      0
    1    3   ES      0
    3   12   ES      0
    1    4   ES      0
    4   12   ES      0
    1    5   ES      0
    5   12   ES      0
    1    6   ES      0
    6   12   ES      0
    1    7   ES      0
    7   12   ES      0
    1    8   ES      0
    8   12   ES      0
    1    9   ES      0
    9   12   ES      0
    1   10   ES      0
   10   12   ES      0
    1   11   ES      0
   11   12   ES      0
    1   12   ES      0
    2    6   SS      3
    2    6   SE     -5
    2    6   ES     10
    2    6   EE     11
    2    8   SS    -11
    2    8   SE     -3
    2    8   ES     -1
    2    8   EE    -10
    3    8   SS      7
    3    8   SE     -1
    3    8   ES      2
    3    8   EE      3
    4    5   SS      5
    4    5   SE     -7
    4    5   ES     -1
    4    5   EE      9
    4    7   SS     -1
    4    7   SE     11
    4    7   ES      5
    4    7   EE      5
    5    8   SS     -8
    5    8   SE     -2
    5    8   ES     11
    5    8   EE      8
    5    9   SS     -1
    5    9   SE      1
    5    9   ES     -7
    5    9   EE      6
    5   11   SS      0
    5   11   SE     -1
    5   11   ES      2
    5   11   EE     -1
    6    7   SS     12
    6    7   SE     -3
    6    7   ES     -8
    6    7   EE      9
    6   10   SS     12
    6   10   SE      3
    6   10   ES      9
    6   10   EE      5
    7    9   SS      1
    7    9   SE     -1
    7    9   ES      1
    7    9   EE    -10
    8   10   SS      7
    8   10   SE     -4
    8   10   ES     -8
    8   10   EE     -2
************************************************************************
